NAME: random-65-9086
TYPE: TSP
COMMENT: size=65 seed=9086
DIMENSION: 132
EDGE_WEIGHT_TYPE: EUC_2D
NODE_COORD_SECTION
+0 402 249
-0 402 249
+1 500 509
-1 515 812
+2 94 650
-2 692 997
+3 462 454
-3 87 894
+4 716 51
-4 739 903
+5 987 254
-5 877 411
+6 24 49
-6 269 81
+7 163 773
-7 5 561
+8 584 105
-8 524 84
+9 238 630
-9 206 213
+10 294 23
-10 596 828
+11 117 50
-11 475 240
+12 65 347
-12 378 178
+13 368 625
-13 640 876
+14 924 924
-14 713 808
+15 399 428
-15 137 58
+16 178 622
-16 576 960
+17 291 748
-17 425 336
+18 111 724
-18 379 311
+19 215 711
-19 957 828
+20 803 151
-20 926 101
+21 926 930
-21 247 367
+22 379 397
-22 822 977
+23 147 891
-23 282 834
+24 208 667
-24 459 606
+25 79 745
-25 883 68
+26 570 270
-26 592 42
+27 452 481
-27 414 560
+28 484 879
-28 591 78
+29 415 663
-29 277 737
+30 938 284
-30 615 380
+31 102 745
-31 631 767
+32 495 137
-32 839 562
+33 897 342
-33 227 872
+34 390 252
-34 961 232
+35 173 506
-35 177 40
+36 678 982
-36 704 990
+37 180 130
-37 840 824
+38 355 776
-38 744 279
+39 157 61
-39 574 324
+40 181 300
-40 479 858
+41 189 860
-41 795 954
+42 100 908
-42 859 475
+43 679 437
-43 269 347
+44 847 805
-44 173 450
+45 885 139
-45 942 499
+46 2 225
-46 78 184
+47 594 933
-47 577 989
+48 825 774
-48 801 171
+49 944 343
-49 217 101
+50 764 510
-50 405 919
+51 614 774
-51 925 760
+52 1 775
-52 278 334
+53 244 450
-53 926 352
+54 563 329
-54 313 819
+55 460 458
-55 347 712
+56 108 780
-56 462 7
+57 805 670
-57 43 518
+58 610 816
-58 53 971
+59 176 646
-59 2 762
+60 657 365
-60 721 653
+61 719 285
-61 317 723
+62 398 266
-62 349 339
+63 666 366
-63 686 649
+64 411 465
-64 11 651
+65 707 387
-65 1 406
PRECEDENCE_SECTION
+0 -0
+1 -1
+2 -2
+3 -3
+4 -4
+5 -5
+6 -6
+7 -7
+8 -8
+9 -9
+10 -10
+11 -11
+12 -12
+13 -13
+14 -14
+15 -15
+16 -16
+17 -17
+18 -18
+19 -19
+20 -20
+21 -21
+22 -22
+23 -23
+24 -24
+25 -25
+26 -26
+27 -27
+28 -28
+29 -29
+30 -30
+31 -31
+32 -32
+33 -33
+34 -34
+35 -35
+36 -36
+37 -37
+38 -38
+39 -39
+40 -40
+41 -41
+42 -42
+43 -43
+44 -44
+45 -45
+46 -46
+47 -47
+48 -48
+49 -49
+50 -50
+51 -51
+52 -52
+53 -53
+54 -54
+55 -55
+56 -56
+57 -57
+58 -58
+59 -59
+60 -60
+61 -61
+62 -62
+63 -63
+64 -64
+65 -65
EOF
